21° run output:
{
    "Function": "kroB500.tsp",
    "Problem dimension": [
        336,
        271,
        74,
        184,
        59,
        294,
        133,
        10,
        376,
        17,
        44,
        306,
        211,
        421,
        37,
        297,
        80,
        468,
        246,
        55,
        465,
        303,
        239,
        38,
        223,
        427,
        148,
        173,
        64,
        272,
        392,
        5,
        144,
        391,
        372,
        56,
        0,
        354,
        366,
        102,
        220,
        252,
        143,
        1,
        296,
        117,
        269,
        334,
        432,
        471,
        136,
        158,
        497,
        461,
        326,
        428,
        332,
        82,
        442,
        69,
        36,
        430,
        12,
        356,
        116,
        92,
        141,
        455,
        248,
        284,
        348,
        28,
        22,
        314,
        217,
        475,
        34,
        151,
        259,
        98,
        58,
        126,
        198,
        214,
        351,
        51,
        330,
        195,
        387,
        319,
        153,
        152,
        168,
        390,
        229,
        183,
        170,
        159,
        108,
        339,
        129,
        134,
        140,
        363,
        218,
        146,
        322,
        181,
        179,
        232,
        85,
        107,
        344,
        203,
        41,
        19,
        196,
        244,
        350,
        57,
        201,
        393,
        280,
        383,
        254,
        138,
        176,
        216,
        370,
        207,
        395,
        265,
        154,
        488,
        321,
        70,
        343,
        150,
        18,
        274,
        291,
        172,
        113,
        287,
        345,
        33,
        429,
        256,
        267,
        32,
        186,
        478,
        388,
        257,
        301,
        437,
        266,
        191,
        47,
        285,
        360,
        164,
        299,
        293,
        7,
        255,
        309,
        493,
        439,
        26,
        496,
        298,
        349,
        21,
        49,
        359,
        219,
        331,
        35,
        63,
        450,
        197,
        72,
        434,
        459,
        237,
        453,
        88,
        401,
        139,
        494,
        469,
        104,
        114,
        307,
        54,
        163,
        270,
        457,
        4,
        396,
        199,
        317,
        147,
        380,
        463,
        161,
        414,
        96,
        327,
        449,
        422,
        61,
        100,
        499,
        290,
        308,
        53,
        286,
        410,
        368,
        20,
        305,
        94,
        87,
        353,
        487,
        115,
        250,
        479,
        235,
        175,
        325,
        209,
        495,
        365,
        231,
        278,
        288,
        411,
        42,
        73,
        402,
        101,
        105,
        109,
        81,
        470,
        492,
        258,
        78,
        315,
        398,
        68,
        400,
        355,
        312,
        452,
        431,
        76,
        187,
        341,
        222,
        215,
        451,
        384,
        477,
        30,
        16,
        202,
        77,
        50,
        230,
        242,
        483,
        262,
        142,
        482,
        178,
        364,
        189,
        277,
        373,
        23,
        205,
        245,
        221,
        46,
        447,
        263,
        413,
        192,
        103,
        14,
        125,
        169,
        106,
        166,
        225,
        417,
        433,
        424,
        83,
        300,
        498,
        378,
        89,
        145,
        48,
        247,
        462,
        268,
        408,
        273,
        240,
        448,
        75,
        2,
        473,
        464,
        127,
        236,
        62,
        226,
        3,
        394,
        485,
        416,
        310,
        90,
        289,
        404,
        39,
        188,
        131,
        324,
        342,
        369,
        425,
        276,
        233,
        328,
        208,
        436,
        206,
        333,
        440,
        8,
        472,
        171,
        281,
        111,
        292,
        65,
        238,
        162,
        361,
        282,
        160,
        423,
        352,
        130,
        190,
        490,
        399,
        213,
        481,
        347,
        438,
        24,
        261,
        460,
        52,
        121,
        323,
        454,
        86,
        405,
        149,
        204,
        346,
        25,
        251,
        467,
        338,
        304,
        375,
        193,
        406,
        279,
        381,
        79,
        124,
        119,
        43,
        443,
        180,
        112,
        234,
        420,
        91,
        155,
        397,
        311,
        302,
        120,
        412,
        185,
        403,
        200,
        84,
        29,
        283,
        212,
        444,
        441,
        95,
        194,
        260,
        99,
        358,
        445,
        379,
        320,
        249,
        167,
        15,
        316,
        476,
        137,
        253,
        227,
        480,
        241,
        409,
        123,
        295,
        419,
        486,
        318,
        357,
        435,
        329,
        31,
        66,
        224,
        313,
        122,
        466,
        367,
        337,
        491,
        156,
        6,
        177,
        458,
        174,
        128,
        335,
        11,
        165,
        389,
        67,
        484,
        426,
        13,
        456,
        489,
        371,
        377,
        340,
        9,
        474,
        228,
        182,
        40,
        118,
        446,
        362,
        110,
        415,
        45,
        93,
        97,
        135,
        157,
        210,
        71,
        275,
        27,
        382,
        386,
        374,
        60,
        132,
        264,
        385,
        418,
        407,
        243
    ],
    "Global Optimum": 0,
    "Algorithm": "Genetic algorithm",
    "Parameters": {
        "population": 30,
        "offspring": 30,
        "mutation probability": 0.002,
        "crossover probability": 0.9
    },
    "Fitness": 513722,
    "Solution": [
        336,
        271,
        74,
        184,
        59,
        294,
        133,
        10,
        376,
        17,
        44,
        306,
        211,
        421,
        37,
        297,
        80,
        468,
        246,
        55,
        465,
        303,
        239,
        38,
        223,
        427,
        148,
        173,
        64,
        272,
        392,
        5,
        144,
        391,
        372,
        56,
        0,
        354,
        366,
        102,
        220,
        252,
        143,
        1,
        296,
        117,
        269,
        334,
        432,
        471,
        136,
        158,
        497,
        461,
        326,
        428,
        332,
        82,
        442,
        69,
        36,
        430,
        12,
        356,
        116,
        92,
        141,
        455,
        248,
        284,
        348,
        28,
        22,
        314,
        217,
        475,
        34,
        151,
        259,
        98,
        58,
        126,
        198,
        214,
        351,
        51,
        330,
        195,
        387,
        319,
        153,
        152,
        168,
        390,
        229,
        183,
        170,
        159,
        108,
        339,
        129,
        134,
        140,
        363,
        218,
        146,
        322,
        181,
        179,
        232,
        85,
        107,
        344,
        203,
        41,
        19,
        196,
        244,
        350,
        57,
        201,
        393,
        280,
        383,
        254,
        138,
        176,
        216,
        370,
        207,
        395,
        265,
        154,
        488,
        321,
        70,
        343,
        150,
        18,
        274,
        291,
        172,
        113,
        287,
        345,
        33,
        429,
        256,
        267,
        32,
        186,
        478,
        388,
        257,
        301,
        437,
        266,
        191,
        47,
        285,
        360,
        164,
        299,
        293,
        7,
        255,
        309,
        493,
        439,
        26,
        496,
        298,
        349,
        21,
        49,
        359,
        219,
        331,
        35,
        63,
        450,
        197,
        72,
        434,
        459,
        237,
        453,
        88,
        401,
        139,
        494,
        469,
        104,
        114,
        307,
        54,
        163,
        270,
        457,
        4,
        396,
        199,
        317,
        147,
        380,
        463,
        161,
        414,
        96,
        327,
        449,
        422,
        61,
        100,
        499,
        290,
        308,
        53,
        286,
        410,
        368,
        20,
        305,
        94,
        87,
        353,
        487,
        115,
        250,
        479,
        235,
        175,
        325,
        209,
        495,
        365,
        231,
        278,
        288,
        411,
        42,
        73,
        402,
        101,
        105,
        109,
        81,
        470,
        492,
        258,
        78,
        315,
        398,
        68,
        400,
        355,
        312,
        452,
        431,
        76,
        187,
        341,
        222,
        215,
        451,
        384,
        477,
        30,
        16,
        202,
        77,
        50,
        230,
        242,
        483,
        262,
        142,
        482,
        178,
        364,
        189,
        277,
        373,
        23,
        205,
        245,
        221,
        46,
        447,
        263,
        413,
        192,
        103,
        14,
        125,
        169,
        106,
        166,
        225,
        417,
        433,
        424,
        83,
        300,
        498,
        378,
        89,
        145,
        48,
        247,
        462,
        268,
        408,
        273,
        240,
        448,
        75,
        2,
        473,
        464,
        127,
        236,
        62,
        226,
        3,
        394,
        485,
        416,
        310,
        90,
        289,
        404,
        39,
        188,
        131,
        324,
        342,
        369,
        425,
        276,
        233,
        328,
        208,
        436,
        206,
        333,
        440,
        8,
        472,
        171,
        281,
        111,
        292,
        65,
        238,
        162,
        361,
        282,
        160,
        423,
        352,
        130,
        190,
        490,
        399,
        213,
        481,
        347,
        438,
        24,
        261,
        460,
        52,
        121,
        323,
        454,
        86,
        405,
        149,
        204,
        346,
        25,
        251,
        467,
        338,
        304,
        375,
        193,
        406,
        279,
        381,
        79,
        124,
        119,
        43,
        443,
        180,
        112,
        234,
        420,
        91,
        155,
        397,
        311,
        302,
        120,
        412,
        185,
        403,
        200,
        84,
        29,
        283,
        212,
        444,
        441,
        95,
        194,
        260,
        99,
        358,
        445,
        379,
        320,
        249,
        167,
        15,
        316,
        476,
        137,
        253,
        227,
        480,
        241,
        409,
        123,
        295,
        419,
        486,
        318,
        357,
        435,
        329,
        31,
        66,
        224,
        313,
        122,
        466,
        367,
        337,
        491,
        156,
        6,
        177,
        458,
        174,
        128,
        335,
        11,
        165,
        389,
        67,
        484,
        426,
        13,
        456,
        489,
        371,
        377,
        340,
        9,
        474,
        228,
        182,
        40,
        118,
        446,
        362,
        110,
        415,
        45,
        93,
        97,
        135,
        157,
        210,
        71,
        275,
        27,
        382,
        386,
        374,
        60,
        132,
        264,
        385,
        418,
        407,
        243
    ],
    "Nb of functions evaluations": 400020,
    "Computational time in seconds": 1507.6617739200592,
    "Stopping criterion in evaluations": 400000
}